100
10 4
5 0
37 0
2 3
22 1
0 4
0 3
23 4
7 2
13 1
34 3
29 3
27 0
32 3
21 4
6 0
28 4
30 4
3 4
10 3
7 0
38 0
27 3
38 4
34 2
1 3
23 2
40 3
40 0
4 0
25 0
15 0
19 4
24 0
7 1
39 4
10 0
13 3
14 0
22 4
22 2
19 0
12 0
31 4
0 0
11 0
34 4
14 4
4 4
16 0
36 1
42 0
9 3
2 4
43 4
24 3
33 3
28 0
43 2
11 4
18 3
4 3
16 4
42 4
6 1
43 0
15 4
33 0
36 3
5 2
5 3
41 4
2 0
29 0
9 1
1 0
36 4
21 0
19 1
33 4
34 0
39 1
31 0
11 1
19 2
34 1
25 2
9 4
27 2
38 3
6 4
13 0
7 4
20 0
30 3
41 3
37 2
32 0
37 3
23 1

